(set-logic QF_LIA)
(set-info :ran/ran10.smt2)
(set-info :smt-lib-version 2.0)
(declare-fun x0 () Int)
(declare-fun x1 () Int)
(declare-fun x2 () Int)
(declare-fun x3 () Int)
(declare-fun x4 () Int)
(declare-fun x5 () Int)
(declare-fun x6 () Int)
(declare-fun x7 () Int)
(declare-fun x8 () Int)
(declare-fun x9 () Int)
(define-fun ie0 () Bool (<= (+ (* (- 91) x9) (* (- 68) x1) (* 71 x4) (* 89 x8) ) (- 75)))
(define-fun ie1 () Bool (<= (+ (* 30 x7) (* (- 14) x2) (* 52 x2) ) 12))
(define-fun ie2 () Bool (<= (+ (* 22 x5) (* 35 x0) (* 5 x8) (* (- 79) x7) ) (- 71)))
(define-fun ie3 () Bool (<= (+ (* 22 x1) (* (- 32) x1) ) 41))
(define-fun ie4 () Bool (<= (+ (* 25 x4) (* (- 63) x4) (* 33 x4) (* 16 x5) ) 51))
(define-fun ie5 () Bool (<= (+ (* 70 x4) (* (- 75) x2) (* 55 x7) (* (- 83) x0) ) 98))
(define-fun ie6 () Bool (<= (+ (* (- 79) x1) (* 2 x0) (* (- 59) x4) ) (- 56)))
(define-fun ie7 () Bool (<= (+ (* 8 x5) (* 62 x5) (* (- 99) x1) (* (- 1) x4) ) 65))
(define-fun ie8 () Bool (<= (+ (* 2 x9) (* 71 x2) (* 25 x8) (* 54 x0) ) (- 4)))
(define-fun ie9 () Bool (<= (+ (* 22 x6) (* (- 53) x3) (* 69 x9) (* 94 x1) ) 26))
(assert ie0)
(assert ie1)
(assert ie2)
(assert ie3)
(assert ie4)
(assert ie5)
(assert ie6)
(assert ie7)
(assert ie8)
(assert ie9)
(check-sat)
(exit)
